c A SAT instance generated from a 3-CNF formula that had 22 clauses and 11 variables
p cnf 11 22
-2 -7 3 0
-11 -1 10 0
11 8 -2 0
-3 9 -2 0
-11 7 -6 0
2 7 -9 0
11 8 6 0
4 10 6 0
1 -9 -5 0
-1 -11 7 0
4 10 -8 0
-7 -10 -11 0
-10 7 6 0
-7 -10 -1 0
-1 -8 -10 0
3 9 11 0
-4 -3 -8 0
-4 -6 2 0
8 1 5 0
-3 -5 -9 0
-8 6 -3 0
2 -11 -4 0
